clingo version 5.4.0
Reading from encoding\merging.lp ...
UNKNOWN

INTERRUPTED  : 1
Models       : 0+
Calls        : 1
Time         : 65.221s (Solving: 0.00s 1st Model: 0.00s Unsat: 0.00s)
CPU Time     : 64.875s
